Route #1: 62 7 42 60 37 19 11 36 14 40 20 17 15 5 29 10 61 69 54 49 51 56 75 34
Route #2: 25 16 66 71 4 8 38 28 50 30 9 46 77 58 52 72 47 76 64 33 32 74 35 21 55
Route #3: 59 68 57 44 2 22 18 70 39 48
Route #4: 67 41 63 65 27 12 24 78 45 43 26
Route #5: 31 6 3 23 13
Route #6: 1 73 53
Route #7: 
Route #8: 
Route #9: 
Route #10: 
cost 1703.4628784531624
